(set-logic HORN)
(declare-fun invariant (Real Real Real Real Real Real Real Real Real Real Real Real Real Real Real Real Real Real Real Real Real Real Real Real Real Real Real Real Real Real Real Real Real Real Real Real Real Real Real Real Real Real Real Real Real Real Real Real Real Real Real Real Real Real Bool Bool Bool Bool Bool Bool Bool Bool Bool Bool Bool Bool Real Real Real Real Real Real) Bool)

;; Initial state
(assert
  (forall ((state.cx!0!0 Real) (state.cx!0!1 Real) (state.cx!0!2 Real) (state.cx!0!3 Real) (state.cx!0!4 Real) (state.cx!0!5 Real) (state.cx!0!6 Real) (state.cx!0!7 Real) (state.cx!0!8 Real) (state.cx!1!0 Real) (state.cx!1!1 Real) (state.cx!1!2 Real) (state.cx!1!3 Real) (state.cx!1!4 Real) (state.cx!1!5 Real) (state.cx!1!6 Real) (state.cx!1!7 Real) (state.cx!1!8 Real) (state.cx!2!0 Real) (state.cx!2!1 Real) (state.cx!2!2 Real) (state.cx!2!3 Real) (state.cx!2!4 Real) (state.cx!2!5 Real) (state.cx!2!6 Real) (state.cx!2!7 Real) (state.cx!2!8 Real) (state.cy!0!0 Real) (state.cy!0!1 Real) (state.cy!0!2 Real) (state.cy!0!3 Real) (state.cy!0!4 Real) (state.cy!0!5 Real) (state.cy!0!6 Real) (state.cy!0!7 Real) (state.cy!0!8 Real) (state.cy!1!0 Real) (state.cy!1!1 Real) (state.cy!1!2 Real) (state.cy!1!3 Real) (state.cy!1!4 Real) (state.cy!1!5 Real) (state.cy!1!6 Real) (state.cy!1!7 Real) (state.cy!1!8 Real) (state.cy!2!0 Real) (state.cy!2!1 Real) (state.cy!2!2 Real) (state.cy!2!3 Real) (state.cy!2!4 Real) (state.cy!2!5 Real) (state.cy!2!6 Real) (state.cy!2!7 Real) (state.cy!2!8 Real) (state.good_p!0 Bool) (state.good_p!1 Bool) (state.good_p!2 Bool) (state.good_r!0 Bool) (state.good_r!1 Bool) (state.good_r!2 Bool) (state.good_r!3 Bool) (state.good_r!4 Bool) (state.good_r!5 Bool) (state.good_r!6 Bool) (state.good_r!7 Bool) (state.good_r!8 Bool) (state.v!0 Real) (state.v!1 Real) (state.v!2 Real) (state.round Real) (state.source Real) (state.val Real))
    (=> (let ((l0 (= |state.round| 0))) (let ((l1 (= |state.cx!0!0| 0))) (let ((l2 (= |state.cx!0!1| 0))) (let ((l3 (= |state.cx!0!2| 0))) (let ((l4 (= |state.cx!0!3| 0))) (let ((l5 (= |state.cx!0!4| 0))) (let ((l6 (= |state.cx!0!5| 0))) (let ((l7 (= |state.cx!0!6| 0))) (let ((l8 (= |state.cx!0!7| 0))) (let ((l9 (= |state.cx!0!8| 0))) (let ((l10 (= |state.cx!1!0| 0))) (let ((l11 (= |state.cx!1!1| 0))) (let ((l12 (= |state.cx!1!2| 0))) (let ((l13 (= |state.cx!1!3| 0))) (let ((l14 (= |state.cx!1!4| 0))) (let ((l15 (= |state.cx!1!5| 0))) (let ((l16 (= |state.cx!1!6| 0))) (let ((l17 (= |state.cx!1!7| 0))) (let ((l18 (= |state.cx!1!8| 0))) (let ((l19 (= |state.cx!2!0| 0))) (let ((l20 (= |state.cx!2!1| 0))) (let ((l21 (= |state.cx!2!2| 0))) (let ((l22 (= |state.cx!2!3| 0))) (let ((l23 (= |state.cx!2!4| 0))) (let ((l24 (= |state.cx!2!5| 0))) (let ((l25 (= |state.cx!2!6| 0))) (let ((l26 (= |state.cx!2!7| 0))) (let ((l27 (= |state.cx!2!8| 0))) (let ((l28 (= |state.cy!0!0| 0))) (let ((l29 (= |state.cy!0!1| 0))) (let ((l30 (= |state.cy!0!2| 0))) (let ((l31 (= |state.cy!0!3| 0))) (let ((l32 (= |state.cy!0!4| 0))) (let ((l33 (= |state.cy!0!5| 0))) (let ((l34 (= |state.cy!0!6| 0))) (let ((l35 (= |state.cy!0!7| 0))) (let ((l36 (= |state.cy!0!8| 0))) (let ((l37 (= |state.cy!1!0| 0))) (let ((l38 (= |state.cy!1!1| 0))) (let ((l39 (= |state.cy!1!2| 0))) (let ((l40 (= |state.cy!1!3| 0))) (let ((l41 (= |state.cy!1!4| 0))) (let ((l42 (= |state.cy!1!5| 0))) (let ((l43 (= |state.cy!1!6| 0))) (let ((l44 (= |state.cy!1!7| 0))) (let ((l45 (= |state.cy!1!8| 0))) (let ((l46 (= |state.cy!2!0| 0))) (let ((l47 (= |state.cy!2!1| 0))) (let ((l48 (= |state.cy!2!2| 0))) (let ((l49 (= |state.cy!2!3| 0))) (let ((l50 (= |state.cy!2!4| 0))) (let ((l51 (= |state.cy!2!5| 0))) (let ((l52 (= |state.cy!2!6| 0))) (let ((l53 (= |state.cy!2!7| 0))) (let ((l54 (= |state.cy!2!8| 0))) (let ((l55 (= |state.source| 1))) (let ((l56 (= |state.source| 2))) (let ((l57 (= |state.source| 3))) (let ((l58 (or l55 l56 l57))) (let ((l59 (= |state.val| 0))) (let ((l60 (not l59))) (let ((l61 (and |state.good_p!0| |state.good_p!1| |state.good_p!2|))) (let ((l62 (not |state.good_r!0|))) (let ((l63 (and l62 |state.good_r!1| |state.good_r!2| |state.good_r!3| |state.good_r!4| |state.good_r!5| |state.good_r!6| |state.good_r!7| |state.good_r!8|))) (let ((l64 (not |state.good_r!1|))) (let ((l65 (and l64 |state.good_r!0| |state.good_r!2| |state.good_r!3| |state.good_r!4| |state.good_r!5| |state.good_r!6| |state.good_r!7| |state.good_r!8|))) (let ((l66 (not |state.good_r!2|))) (let ((l67 (and l66 |state.good_r!0| |state.good_r!1| |state.good_r!3| |state.good_r!4| |state.good_r!5| |state.good_r!6| |state.good_r!7| |state.good_r!8|))) (let ((l68 (not |state.good_r!3|))) (let ((l69 (and l68 |state.good_r!0| |state.good_r!1| |state.good_r!2| |state.good_r!4| |state.good_r!5| |state.good_r!6| |state.good_r!7| |state.good_r!8|))) (let ((l70 (not |state.good_r!4|))) (let ((l71 (and l70 |state.good_r!0| |state.good_r!1| |state.good_r!2| |state.good_r!3| |state.good_r!5| |state.good_r!6| |state.good_r!7| |state.good_r!8|))) (let ((l72 (not |state.good_r!5|))) (let ((l73 (and l72 |state.good_r!0| |state.good_r!1| |state.good_r!2| |state.good_r!3| |state.good_r!4| |state.good_r!6| |state.good_r!7| |state.good_r!8|))) (let ((l74 (not |state.good_r!6|))) (let ((l75 (and l74 |state.good_r!0| |state.good_r!1| |state.good_r!2| |state.good_r!3| |state.good_r!4| |state.good_r!5| |state.good_r!7| |state.good_r!8|))) (let ((l76 (not |state.good_r!7|))) (let ((l77 (and l76 |state.good_r!0| |state.good_r!1| |state.good_r!2| |state.good_r!3| |state.good_r!4| |state.good_r!5| |state.good_r!6| |state.good_r!8|))) (let ((l78 (not |state.good_r!8|))) (let ((l79 (and l78 |state.good_r!0| |state.good_r!1| |state.good_r!2| |state.good_r!3| |state.good_r!4| |state.good_r!5| |state.good_r!6| |state.good_r!7|))) (let ((l80 (or l63 l65 l67 l69 l71 l73 l75 l77 l79))) (let ((l81 (and l0 l1 l2 l3 l4 l5 l6 l7 l8 l9 l10 l11 l12 l13 l14 l15 l16 l17 l18 l19 l20 l21 l22 l23 l24 l25 l26 l27 l28 l29 l30 l31 l32 l33 l34 l35 l36 l37 l38 l39 l40 l41 l42 l43 l44 l45 l46 l47 l48 l49 l50 l51 l52 l53 l54 l58 l60 l61 l80))) l81))))))))))))))))))))))))))))))))))))))))))))))))))))))))))))))))))))))))))))))))))
        (invariant state.cx!0!0 state.cx!0!1 state.cx!0!2 state.cx!0!3 state.cx!0!4 state.cx!0!5 state.cx!0!6 state.cx!0!7 state.cx!0!8 state.cx!1!0 state.cx!1!1 state.cx!1!2 state.cx!1!3 state.cx!1!4 state.cx!1!5 state.cx!1!6 state.cx!1!7 state.cx!1!8 state.cx!2!0 state.cx!2!1 state.cx!2!2 state.cx!2!3 state.cx!2!4 state.cx!2!5 state.cx!2!6 state.cx!2!7 state.cx!2!8 state.cy!0!0 state.cy!0!1 state.cy!0!2 state.cy!0!3 state.cy!0!4 state.cy!0!5 state.cy!0!6 state.cy!0!7 state.cy!0!8 state.cy!1!0 state.cy!1!1 state.cy!1!2 state.cy!1!3 state.cy!1!4 state.cy!1!5 state.cy!1!6 state.cy!1!7 state.cy!1!8 state.cy!2!0 state.cy!2!1 state.cy!2!2 state.cy!2!3 state.cy!2!4 state.cy!2!5 state.cy!2!6 state.cy!2!7 state.cy!2!8 state.good_p!0 state.good_p!1 state.good_p!2 state.good_r!0 state.good_r!1 state.good_r!2 state.good_r!3 state.good_r!4 state.good_r!5 state.good_r!6 state.good_r!7 state.good_r!8 state.v!0 state.v!1 state.v!2 state.round state.source state.val))
  )
)

;; Transition relation
(assert
  (forall ((state.cx!0!0 Real) (next.cx!0!0 Real) (state.cx!0!1 Real) (next.cx!0!1 Real) (state.cx!0!2 Real) (next.cx!0!2 Real) (state.cx!0!3 Real) (next.cx!0!3 Real) (state.cx!0!4 Real) (next.cx!0!4 Real) (state.cx!0!5 Real) (next.cx!0!5 Real) (state.cx!0!6 Real) (next.cx!0!6 Real) (state.cx!0!7 Real) (next.cx!0!7 Real) (state.cx!0!8 Real) (next.cx!0!8 Real) (state.cx!1!0 Real) (next.cx!1!0 Real) (state.cx!1!1 Real) (next.cx!1!1 Real) (state.cx!1!2 Real) (next.cx!1!2 Real) (state.cx!1!3 Real) (next.cx!1!3 Real) (state.cx!1!4 Real) (next.cx!1!4 Real) (state.cx!1!5 Real) (next.cx!1!5 Real) (state.cx!1!6 Real) (next.cx!1!6 Real) (state.cx!1!7 Real) (next.cx!1!7 Real) (state.cx!1!8 Real) (next.cx!1!8 Real) (state.cx!2!0 Real) (next.cx!2!0 Real) (state.cx!2!1 Real) (next.cx!2!1 Real) (state.cx!2!2 Real) (next.cx!2!2 Real) (state.cx!2!3 Real) (next.cx!2!3 Real) (state.cx!2!4 Real) (next.cx!2!4 Real) (state.cx!2!5 Real) (next.cx!2!5 Real) (state.cx!2!6 Real) (next.cx!2!6 Real) (state.cx!2!7 Real) (next.cx!2!7 Real) (state.cx!2!8 Real) (next.cx!2!8 Real) (state.cy!0!0 Real) (next.cy!0!0 Real) (state.cy!0!1 Real) (next.cy!0!1 Real) (state.cy!0!2 Real) (next.cy!0!2 Real) (state.cy!0!3 Real) (next.cy!0!3 Real) (state.cy!0!4 Real) (next.cy!0!4 Real) (state.cy!0!5 Real) (next.cy!0!5 Real) (state.cy!0!6 Real) (next.cy!0!6 Real) (state.cy!0!7 Real) (next.cy!0!7 Real) (state.cy!0!8 Real) (next.cy!0!8 Real) (state.cy!1!0 Real) (next.cy!1!0 Real) (state.cy!1!1 Real) (next.cy!1!1 Real) (state.cy!1!2 Real) (next.cy!1!2 Real) (state.cy!1!3 Real) (next.cy!1!3 Real) (state.cy!1!4 Real) (next.cy!1!4 Real) (state.cy!1!5 Real) (next.cy!1!5 Real) (state.cy!1!6 Real) (next.cy!1!6 Real) (state.cy!1!7 Real) (next.cy!1!7 Real) (state.cy!1!8 Real) (next.cy!1!8 Real) (state.cy!2!0 Real) (next.cy!2!0 Real) (state.cy!2!1 Real) (next.cy!2!1 Real) (state.cy!2!2 Real) (next.cy!2!2 Real) (state.cy!2!3 Real) (next.cy!2!3 Real) (state.cy!2!4 Real) (next.cy!2!4 Real) (state.cy!2!5 Real) (next.cy!2!5 Real) (state.cy!2!6 Real) (next.cy!2!6 Real) (state.cy!2!7 Real) (next.cy!2!7 Real) (state.cy!2!8 Real) (next.cy!2!8 Real) (state.good_p!0 Bool) (next.good_p!0 Bool) (state.good_p!1 Bool) (next.good_p!1 Bool) (state.good_p!2 Bool) (next.good_p!2 Bool) (state.good_r!0 Bool) (next.good_r!0 Bool) (state.good_r!1 Bool) (next.good_r!1 Bool) (state.good_r!2 Bool) (next.good_r!2 Bool) (state.good_r!3 Bool) (next.good_r!3 Bool) (state.good_r!4 Bool) (next.good_r!4 Bool) (state.good_r!5 Bool) (next.good_r!5 Bool) (state.good_r!6 Bool) (next.good_r!6 Bool) (state.good_r!7 Bool) (next.good_r!7 Bool) (state.good_r!8 Bool) (next.good_r!8 Bool) (state.v!0 Real) (next.v!0 Real) (state.v!1 Real) (next.v!1 Real) (state.v!2 Real) (next.v!2 Real) (state.round Real) (next.round Real) (state.source Real) (next.source Real) (state.val Real) (next.val Real))
    (=> (and (invariant state.cx!0!0 state.cx!0!1 state.cx!0!2 state.cx!0!3 state.cx!0!4 state.cx!0!5 state.cx!0!6 state.cx!0!7 state.cx!0!8 state.cx!1!0 state.cx!1!1 state.cx!1!2 state.cx!1!3 state.cx!1!4 state.cx!1!5 state.cx!1!6 state.cx!1!7 state.cx!1!8 state.cx!2!0 state.cx!2!1 state.cx!2!2 state.cx!2!3 state.cx!2!4 state.cx!2!5 state.cx!2!6 state.cx!2!7 state.cx!2!8 state.cy!0!0 state.cy!0!1 state.cy!0!2 state.cy!0!3 state.cy!0!4 state.cy!0!5 state.cy!0!6 state.cy!0!7 state.cy!0!8 state.cy!1!0 state.cy!1!1 state.cy!1!2 state.cy!1!3 state.cy!1!4 state.cy!1!5 state.cy!1!6 state.cy!1!7 state.cy!1!8 state.cy!2!0 state.cy!2!1 state.cy!2!2 state.cy!2!3 state.cy!2!4 state.cy!2!5 state.cy!2!6 state.cy!2!7 state.cy!2!8 state.good_p!0 state.good_p!1 state.good_p!2 state.good_r!0 state.good_r!1 state.good_r!2 state.good_r!3 state.good_r!4 state.good_r!5 state.good_r!6 state.good_r!7 state.good_r!8 state.v!0 state.v!1 state.v!2 state.round state.source state.val)
             (let ((l0 (= |next.source| |state.source|))) (let ((l1 (= |next.val| |state.val|))) (let ((l2 (= |state.round| 0))) (let ((l3 (not |state.good_p!0|))) (let ((l4 (= 1 |state.source|))) (let ((l5 (not l4))) (let ((l6 (= |next.cx!0!0| |state.val|))) (let ((l7 (= |next.cx!0!1| |state.val|))) (let ((l8 (= |next.cx!0!2| |state.val|))) (let ((l9 (= |next.cx!0!3| |state.val|))) (let ((l10 (= |next.cx!0!4| |state.val|))) (let ((l11 (= |next.cx!0!5| |state.val|))) (let ((l12 (= |next.cx!0!6| |state.val|))) (let ((l13 (= |next.cx!0!7| |state.val|))) (let ((l14 (= |next.cx!0!8| |state.val|))) (let ((l15 (and l6 l7 l8 l9 l10 l11 l12 l13 l14))) (let ((l16 (or l3 l5 l15))) (let ((l17 (not |state.good_p!1|))) (let ((l18 (= 2 |state.source|))) (let ((l19 (not l18))) (let ((l20 (= |next.cx!1!0| |state.val|))) (let ((l21 (= |next.cx!1!1| |state.val|))) (let ((l22 (= |next.cx!1!2| |state.val|))) (let ((l23 (= |next.cx!1!3| |state.val|))) (let ((l24 (= |next.cx!1!4| |state.val|))) (let ((l25 (= |next.cx!1!5| |state.val|))) (let ((l26 (= |next.cx!1!6| |state.val|))) (let ((l27 (= |next.cx!1!7| |state.val|))) (let ((l28 (= |next.cx!1!8| |state.val|))) (let ((l29 (and l20 l21 l22 l23 l24 l25 l26 l27 l28))) (let ((l30 (or l17 l19 l29))) (let ((l31 (not |state.good_p!2|))) (let ((l32 (= 3 |state.source|))) (let ((l33 (not l32))) (let ((l34 (= |next.cx!2!0| |state.val|))) (let ((l35 (= |next.cx!2!1| |state.val|))) (let ((l36 (= |next.cx!2!2| |state.val|))) (let ((l37 (= |next.cx!2!3| |state.val|))) (let ((l38 (= |next.cx!2!4| |state.val|))) (let ((l39 (= |next.cx!2!5| |state.val|))) (let ((l40 (= |next.cx!2!6| |state.val|))) (let ((l41 (= |next.cx!2!7| |state.val|))) (let ((l42 (= |next.cx!2!8| |state.val|))) (let ((l43 (and l34 l35 l36 l37 l38 l39 l40 l41 l42))) (let ((l44 (or l31 l33 l43))) (let ((l45 (= |next.cx!0!0| 0))) (let ((l46 (= |next.cx!0!1| 0))) (let ((l47 (= |next.cx!0!2| 0))) (let ((l48 (= |next.cx!0!3| 0))) (let ((l49 (= |next.cx!0!4| 0))) (let ((l50 (= |next.cx!0!5| 0))) (let ((l51 (= |next.cx!0!6| 0))) (let ((l52 (= |next.cx!0!7| 0))) (let ((l53 (= |next.cx!0!8| 0))) (let ((l54 (and l45 l46 l47 l48 l49 l50 l51 l52 l53))) (let ((l55 (or l3 l4 l54))) (let ((l56 (= |next.cx!1!0| 0))) (let ((l57 (= |next.cx!1!1| 0))) (let ((l58 (= |next.cx!1!2| 0))) (let ((l59 (= |next.cx!1!3| 0))) (let ((l60 (= |next.cx!1!4| 0))) (let ((l61 (= |next.cx!1!5| 0))) (let ((l62 (= |next.cx!1!6| 0))) (let ((l63 (= |next.cx!1!7| 0))) (let ((l64 (= |next.cx!1!8| 0))) (let ((l65 (and l56 l57 l58 l59 l60 l61 l62 l63 l64))) (let ((l66 (or l17 l18 l65))) (let ((l67 (= |next.cx!2!0| 0))) (let ((l68 (= |next.cx!2!1| 0))) (let ((l69 (= |next.cx!2!2| 0))) (let ((l70 (= |next.cx!2!3| 0))) (let ((l71 (= |next.cx!2!4| 0))) (let ((l72 (= |next.cx!2!5| 0))) (let ((l73 (= |next.cx!2!6| 0))) (let ((l74 (= |next.cx!2!7| 0))) (let ((l75 (= |next.cx!2!8| 0))) (let ((l76 (and l67 l68 l69 l70 l71 l72 l73 l74 l75))) (let ((l77 (or l31 l32 l76))) (let ((l78 (and l16 l30 l44 l55 l66 l77))) (let ((l79 (= |next.round| 1))) (let ((l80 (= |next.cy!0!0| |state.cy!0!0|))) (let ((l81 (= |next.cy!0!1| |state.cy!0!1|))) (let ((l82 (= |next.cy!0!2| |state.cy!0!2|))) (let ((l83 (= |next.cy!0!3| |state.cy!0!3|))) (let ((l84 (= |next.cy!0!4| |state.cy!0!4|))) (let ((l85 (= |next.cy!0!5| |state.cy!0!5|))) (let ((l86 (= |next.cy!0!6| |state.cy!0!6|))) (let ((l87 (= |next.cy!0!7| |state.cy!0!7|))) (let ((l88 (= |next.cy!0!8| |state.cy!0!8|))) (let ((l89 (= |next.cy!1!0| |state.cy!1!0|))) (let ((l90 (= |next.cy!1!1| |state.cy!1!1|))) (let ((l91 (= |next.cy!1!2| |state.cy!1!2|))) (let ((l92 (= |next.cy!1!3| |state.cy!1!3|))) (let ((l93 (= |next.cy!1!4| |state.cy!1!4|))) (let ((l94 (= |next.cy!1!5| |state.cy!1!5|))) (let ((l95 (= |next.cy!1!6| |state.cy!1!6|))) (let ((l96 (= |next.cy!1!7| |state.cy!1!7|))) (let ((l97 (= |next.cy!1!8| |state.cy!1!8|))) (let ((l98 (= |next.cy!2!0| |state.cy!2!0|))) (let ((l99 (= |next.cy!2!1| |state.cy!2!1|))) (let ((l100 (= |next.cy!2!2| |state.cy!2!2|))) (let ((l101 (= |next.cy!2!3| |state.cy!2!3|))) (let ((l102 (= |next.cy!2!4| |state.cy!2!4|))) (let ((l103 (= |next.cy!2!5| |state.cy!2!5|))) (let ((l104 (= |next.cy!2!6| |state.cy!2!6|))) (let ((l105 (= |next.cy!2!7| |state.cy!2!7|))) (let ((l106 (= |next.cy!2!8| |state.cy!2!8|))) (let ((l107 (and l80 l81 l82 l83 l84 l85 l86 l87 l88 l89 l90 l91 l92 l93 l94 l95 l96 l97 l98 l99 l100 l101 l102 l103 l104 l105 l106))) (let ((l108 (= |next.good_p!0| |state.good_p!0|))) (let ((l109 (= |next.good_p!1| |state.good_p!1|))) (let ((l110 (= |next.good_p!2| |state.good_p!2|))) (let ((l111 (and l108 l109 l110))) (let ((l112 (= |next.good_r!0| |state.good_r!0|))) (let ((l113 (= |next.good_r!1| |state.good_r!1|))) (let ((l114 (= |next.good_r!2| |state.good_r!2|))) (let ((l115 (= |next.good_r!3| |state.good_r!3|))) (let ((l116 (= |next.good_r!4| |state.good_r!4|))) (let ((l117 (= |next.good_r!5| |state.good_r!5|))) (let ((l118 (= |next.good_r!6| |state.good_r!6|))) (let ((l119 (= |next.good_r!7| |state.good_r!7|))) (let ((l120 (= |next.good_r!8| |state.good_r!8|))) (let ((l121 (and l112 l113 l114 l115 l116 l117 l118 l119 l120))) (let ((l122 (= |next.v!0| |state.v!0|))) (let ((l123 (= |next.v!1| |state.v!1|))) (let ((l124 (= |next.v!2| |state.v!2|))) (let ((l125 (and l122 l123 l124))) (let ((l126 (and l2 l78 l79 l107 l111 l121 l125))) (let ((l127 (= |state.round| 1))) (let ((l128 (not |state.good_r!0|))) (let ((l129 (= |state.source| 3))) (let ((l130 (= |state.source| 2))) (let ((l131 (ite l130 |state.cx!1!0| |state.cx!0!0|))) (let ((l132 (ite l129 |state.cx!2!0| l131))) (let ((l133 (= |next.cy!0!0| l132))) (let ((l134 (or l128 l133))) (let ((l135 (= |next.cy!1!0| l132))) (let ((l136 (or l128 l135))) (let ((l137 (= |next.cy!2!0| l132))) (let ((l138 (or l128 l137))) (let ((l139 (not |state.good_r!1|))) (let ((l140 (ite l130 |state.cx!1!1| |state.cx!0!1|))) (let ((l141 (ite l129 |state.cx!2!1| l140))) (let ((l142 (= |next.cy!0!1| l141))) (let ((l143 (or l139 l142))) (let ((l144 (= |next.cy!1!1| l141))) (let ((l145 (or l139 l144))) (let ((l146 (= |next.cy!2!1| l141))) (let ((l147 (or l139 l146))) (let ((l148 (not |state.good_r!2|))) (let ((l149 (ite l130 |state.cx!1!2| |state.cx!0!2|))) (let ((l150 (ite l129 |state.cx!2!2| l149))) (let ((l151 (= |next.cy!0!2| l150))) (let ((l152 (or l148 l151))) (let ((l153 (= |next.cy!1!2| l150))) (let ((l154 (or l148 l153))) (let ((l155 (= |next.cy!2!2| l150))) (let ((l156 (or l148 l155))) (let ((l157 (not |state.good_r!3|))) (let ((l158 (ite l130 |state.cx!1!3| |state.cx!0!3|))) (let ((l159 (ite l129 |state.cx!2!3| l158))) (let ((l160 (= |next.cy!0!3| l159))) (let ((l161 (or l157 l160))) (let ((l162 (= |next.cy!1!3| l159))) (let ((l163 (or l157 l162))) (let ((l164 (= |next.cy!2!3| l159))) (let ((l165 (or l157 l164))) (let ((l166 (not |state.good_r!4|))) (let ((l167 (ite l130 |state.cx!1!4| |state.cx!0!4|))) (let ((l168 (ite l129 |state.cx!2!4| l167))) (let ((l169 (= |next.cy!0!4| l168))) (let ((l170 (or l166 l169))) (let ((l171 (= |next.cy!1!4| l168))) (let ((l172 (or l166 l171))) (let ((l173 (= |next.cy!2!4| l168))) (let ((l174 (or l166 l173))) (let ((l175 (not |state.good_r!5|))) (let ((l176 (ite l130 |state.cx!1!5| |state.cx!0!5|))) (let ((l177 (ite l129 |state.cx!2!5| l176))) (let ((l178 (= |next.cy!0!5| l177))) (let ((l179 (or l175 l178))) (let ((l180 (= |next.cy!1!5| l177))) (let ((l181 (or l175 l180))) (let ((l182 (= |next.cy!2!5| l177))) (let ((l183 (or l175 l182))) (let ((l184 (not |state.good_r!6|))) (let ((l185 (ite l130 |state.cx!1!6| |state.cx!0!6|))) (let ((l186 (ite l129 |state.cx!2!6| l185))) (let ((l187 (= |next.cy!0!6| l186))) (let ((l188 (or l184 l187))) (let ((l189 (= |next.cy!1!6| l186))) (let ((l190 (or l184 l189))) (let ((l191 (= |next.cy!2!6| l186))) (let ((l192 (or l184 l191))) (let ((l193 (not |state.good_r!7|))) (let ((l194 (ite l130 |state.cx!1!7| |state.cx!0!7|))) (let ((l195 (ite l129 |state.cx!2!7| l194))) (let ((l196 (= |next.cy!0!7| l195))) (let ((l197 (or l193 l196))) (let ((l198 (= |next.cy!1!7| l195))) (let ((l199 (or l193 l198))) (let ((l200 (= |next.cy!2!7| l195))) (let ((l201 (or l193 l200))) (let ((l202 (not |state.good_r!8|))) (let ((l203 (ite l130 |state.cx!1!8| |state.cx!0!8|))) (let ((l204 (ite l129 |state.cx!2!8| l203))) (let ((l205 (= |next.cy!0!8| l204))) (let ((l206 (or l202 l205))) (let ((l207 (= |next.cy!1!8| l204))) (let ((l208 (or l202 l207))) (let ((l209 (= |next.cy!2!8| l204))) (let ((l210 (or l202 l209))) (let ((l211 (and l134 l136 l138 l143 l145 l147 l152 l154 l156 l161 l163 l165 l170 l172 l174 l179 l181 l183 l188 l190 l192 l197 l199 l201 l206 l208 l210))) (let ((l212 (= |next.round| 2))) (let ((l213 (= |next.cx!0!0| |state.cx!0!0|))) (let ((l214 (= |next.cx!0!1| |state.cx!0!1|))) (let ((l215 (= |next.cx!0!2| |state.cx!0!2|))) (let ((l216 (= |next.cx!0!3| |state.cx!0!3|))) (let ((l217 (= |next.cx!0!4| |state.cx!0!4|))) (let ((l218 (= |next.cx!0!5| |state.cx!0!5|))) (let ((l219 (= |next.cx!0!6| |state.cx!0!6|))) (let ((l220 (= |next.cx!0!7| |state.cx!0!7|))) (let ((l221 (= |next.cx!0!8| |state.cx!0!8|))) (let ((l222 (= |next.cx!1!0| |state.cx!1!0|))) (let ((l223 (= |next.cx!1!1| |state.cx!1!1|))) (let ((l224 (= |next.cx!1!2| |state.cx!1!2|))) (let ((l225 (= |next.cx!1!3| |state.cx!1!3|))) (let ((l226 (= |next.cx!1!4| |state.cx!1!4|))) (let ((l227 (= |next.cx!1!5| |state.cx!1!5|))) (let ((l228 (= |next.cx!1!6| |state.cx!1!6|))) (let ((l229 (= |next.cx!1!7| |state.cx!1!7|))) (let ((l230 (= |next.cx!1!8| |state.cx!1!8|))) (let ((l231 (= |next.cx!2!0| |state.cx!2!0|))) (let ((l232 (= |next.cx!2!1| |state.cx!2!1|))) (let ((l233 (= |next.cx!2!2| |state.cx!2!2|))) (let ((l234 (= |next.cx!2!3| |state.cx!2!3|))) (let ((l235 (= |next.cx!2!4| |state.cx!2!4|))) (let ((l236 (= |next.cx!2!5| |state.cx!2!5|))) (let ((l237 (= |next.cx!2!6| |state.cx!2!6|))) (let ((l238 (= |next.cx!2!7| |state.cx!2!7|))) (let ((l239 (= |next.cx!2!8| |state.cx!2!8|))) (let ((l240 (and l213 l214 l215 l216 l217 l218 l219 l220 l221 l222 l223 l224 l225 l226 l227 l228 l229 l230 l231 l232 l233 l234 l235 l236 l237 l238 l239))) (let ((l241 (and l127 l211 l212 l240 l111 l121 l125))) (let ((l242 (= |state.round| 2))) (let ((l243 (= |state.cy!0!7| |state.cy!0!8|))) (let ((l244 (ite l243 2 0))) (let ((l245 (= l244 0))) (let ((l246 (= |state.cy!0!6| |state.cy!0!8|))) (let ((l247 (+ l244 1))) (let ((l248 (- l244 1))) (let ((l249 (ite l246 l247 l248))) (let ((l250 (ite l245 1 l249))) (let ((l251 (= l250 0))) (let ((l252 (ite l245 |state.cy!0!6| |state.cy!0!8|))) (let ((l253 (= |state.cy!0!5| l252))) (let ((l254 (+ l250 1))) (let ((l255 (- l250 1))) (let ((l256 (ite l253 l254 l255))) (let ((l257 (ite l251 1 l256))) (let ((l258 (= l257 0))) (let ((l259 (ite l251 |state.cy!0!5| l252))) (let ((l260 (= |state.cy!0!4| l259))) (let ((l261 (+ l257 1))) (let ((l262 (- l257 1))) (let ((l263 (ite l260 l261 l262))) (let ((l264 (ite l258 1 l263))) (let ((l265 (= l264 0))) (let ((l266 (ite l258 |state.cy!0!4| l259))) (let ((l267 (= |state.cy!0!3| l266))) (let ((l268 (+ l264 1))) (let ((l269 (- l264 1))) (let ((l270 (ite l267 l268 l269))) (let ((l271 (ite l265 1 l270))) (let ((l272 (= l271 0))) (let ((l273 (ite l265 |state.cy!0!3| l266))) (let ((l274 (= |state.cy!0!2| l273))) (let ((l275 (+ l271 1))) (let ((l276 (- l271 1))) (let ((l277 (ite l274 l275 l276))) (let ((l278 (ite l272 1 l277))) (let ((l279 (= l278 0))) (let ((l280 (ite l272 |state.cy!0!2| l273))) (let ((l281 (= |state.cy!0!1| l280))) (let ((l282 (+ l278 1))) (let ((l283 (- l278 1))) (let ((l284 (ite l281 l282 l283))) (let ((l285 (ite l279 1 l284))) (let ((l286 (= l285 0))) (let ((l287 (ite l279 |state.cy!0!1| l280))) (let ((l288 (ite l286 |state.cy!0!0| l287))) (let ((l289 (= |state.cy!0!8| l288))) (let ((l290 (ite l289 4 5))) (let ((l291 (= l290 0))) (let ((l292 (= |state.cy!0!7| l288))) (let ((l293 (- l290 1))) (let ((l294 (ite l292 l293 l290))) (let ((l295 (= l294 0))) (let ((l296 (= |state.cy!0!6| l288))) (let ((l297 (- l294 1))) (let ((l298 (ite l296 l297 l294))) (let ((l299 (= l298 0))) (let ((l300 (= |state.cy!0!5| l288))) (let ((l301 (- l298 1))) (let ((l302 (ite l300 l301 l298))) (let ((l303 (= l302 0))) (let ((l304 (= |state.cy!0!4| l288))) (let ((l305 (- l302 1))) (let ((l306 (ite l304 l305 l302))) (let ((l307 (= l306 0))) (let ((l308 (= |state.cy!0!3| l288))) (let ((l309 (- l306 1))) (let ((l310 (ite l308 l309 l306))) (let ((l311 (= l310 0))) (let ((l312 (= |state.cy!0!2| l288))) (let ((l313 (- l310 1))) (let ((l314 (ite l312 l313 l310))) (let ((l315 (= l314 0))) (let ((l316 (= |state.cy!0!1| l288))) (let ((l317 (- l314 1))) (let ((l318 (ite l316 l317 l314))) (let ((l319 (= l318 0))) (let ((l320 (= |state.cy!0!0| l288))) (let ((l321 (- l318 1))) (let ((l322 (ite l320 l321 l318))) (let ((l323 (= l322 0))) (let ((l324 (or l291 l295 l299 l303 l307 l311 l315 l319 l323))) (let ((l325 (ite l324 l288 0))) (let ((l326 (= |next.v!0| l325))) (let ((l327 (or l3 l326))) (let ((l328 (= |state.cy!1!7| |state.cy!1!8|))) (let ((l329 (ite l328 2 0))) (let ((l330 (= l329 0))) (let ((l331 (= |state.cy!1!6| |state.cy!1!8|))) (let ((l332 (+ l329 1))) (let ((l333 (- l329 1))) (let ((l334 (ite l331 l332 l333))) (let ((l335 (ite l330 1 l334))) (let ((l336 (= l335 0))) (let ((l337 (ite l330 |state.cy!1!6| |state.cy!1!8|))) (let ((l338 (= |state.cy!1!5| l337))) (let ((l339 (+ l335 1))) (let ((l340 (- l335 1))) (let ((l341 (ite l338 l339 l340))) (let ((l342 (ite l336 1 l341))) (let ((l343 (= l342 0))) (let ((l344 (ite l336 |state.cy!1!5| l337))) (let ((l345 (= |state.cy!1!4| l344))) (let ((l346 (+ l342 1))) (let ((l347 (- l342 1))) (let ((l348 (ite l345 l346 l347))) (let ((l349 (ite l343 1 l348))) (let ((l350 (= l349 0))) (let ((l351 (ite l343 |state.cy!1!4| l344))) (let ((l352 (= |state.cy!1!3| l351))) (let ((l353 (+ l349 1))) (let ((l354 (- l349 1))) (let ((l355 (ite l352 l353 l354))) (let ((l356 (ite l350 1 l355))) (let ((l357 (= l356 0))) (let ((l358 (ite l350 |state.cy!1!3| l351))) (let ((l359 (= |state.cy!1!2| l358))) (let ((l360 (+ l356 1))) (let ((l361 (- l356 1))) (let ((l362 (ite l359 l360 l361))) (let ((l363 (ite l357 1 l362))) (let ((l364 (= l363 0))) (let ((l365 (ite l357 |state.cy!1!2| l358))) (let ((l366 (= |state.cy!1!1| l365))) (let ((l367 (+ l363 1))) (let ((l368 (- l363 1))) (let ((l369 (ite l366 l367 l368))) (let ((l370 (ite l364 1 l369))) (let ((l371 (= l370 0))) (let ((l372 (ite l364 |state.cy!1!1| l365))) (let ((l373 (ite l371 |state.cy!1!0| l372))) (let ((l374 (= |state.cy!1!8| l373))) (let ((l375 (ite l374 4 5))) (let ((l376 (= l375 0))) (let ((l377 (= |state.cy!1!7| l373))) (let ((l378 (- l375 1))) (let ((l379 (ite l377 l378 l375))) (let ((l380 (= l379 0))) (let ((l381 (= |state.cy!1!6| l373))) (let ((l382 (- l379 1))) (let ((l383 (ite l381 l382 l379))) (let ((l384 (= l383 0))) (let ((l385 (= |state.cy!1!5| l373))) (let ((l386 (- l383 1))) (let ((l387 (ite l385 l386 l383))) (let ((l388 (= l387 0))) (let ((l389 (= |state.cy!1!4| l373))) (let ((l390 (- l387 1))) (let ((l391 (ite l389 l390 l387))) (let ((l392 (= l391 0))) (let ((l393 (= |state.cy!1!3| l373))) (let ((l394 (- l391 1))) (let ((l395 (ite l393 l394 l391))) (let ((l396 (= l395 0))) (let ((l397 (= |state.cy!1!2| l373))) (let ((l398 (- l395 1))) (let ((l399 (ite l397 l398 l395))) (let ((l400 (= l399 0))) (let ((l401 (= |state.cy!1!1| l373))) (let ((l402 (- l399 1))) (let ((l403 (ite l401 l402 l399))) (let ((l404 (= l403 0))) (let ((l405 (= |state.cy!1!0| l373))) (let ((l406 (- l403 1))) (let ((l407 (ite l405 l406 l403))) (let ((l408 (= l407 0))) (let ((l409 (or l376 l380 l384 l388 l392 l396 l400 l404 l408))) (let ((l410 (ite l409 l373 0))) (let ((l411 (= |next.v!1| l410))) (let ((l412 (or l17 l411))) (let ((l413 (= |state.cy!2!7| |state.cy!2!8|))) (let ((l414 (ite l413 2 0))) (let ((l415 (= l414 0))) (let ((l416 (= |state.cy!2!6| |state.cy!2!8|))) (let ((l417 (+ l414 1))) (let ((l418 (- l414 1))) (let ((l419 (ite l416 l417 l418))) (let ((l420 (ite l415 1 l419))) (let ((l421 (= l420 0))) (let ((l422 (ite l415 |state.cy!2!6| |state.cy!2!8|))) (let ((l423 (= |state.cy!2!5| l422))) (let ((l424 (+ l420 1))) (let ((l425 (- l420 1))) (let ((l426 (ite l423 l424 l425))) (let ((l427 (ite l421 1 l426))) (let ((l428 (= l427 0))) (let ((l429 (ite l421 |state.cy!2!5| l422))) (let ((l430 (= |state.cy!2!4| l429))) (let ((l431 (+ l427 1))) (let ((l432 (- l427 1))) (let ((l433 (ite l430 l431 l432))) (let ((l434 (ite l428 1 l433))) (let ((l435 (= l434 0))) (let ((l436 (ite l428 |state.cy!2!4| l429))) (let ((l437 (= |state.cy!2!3| l436))) (let ((l438 (+ l434 1))) (let ((l439 (- l434 1))) (let ((l440 (ite l437 l438 l439))) (let ((l441 (ite l435 1 l440))) (let ((l442 (= l441 0))) (let ((l443 (ite l435 |state.cy!2!3| l436))) (let ((l444 (= |state.cy!2!2| l443))) (let ((l445 (+ l441 1))) (let ((l446 (- l441 1))) (let ((l447 (ite l444 l445 l446))) (let ((l448 (ite l442 1 l447))) (let ((l449 (= l448 0))) (let ((l450 (ite l442 |state.cy!2!2| l443))) (let ((l451 (= |state.cy!2!1| l450))) (let ((l452 (+ l448 1))) (let ((l453 (- l448 1))) (let ((l454 (ite l451 l452 l453))) (let ((l455 (ite l449 1 l454))) (let ((l456 (= l455 0))) (let ((l457 (ite l449 |state.cy!2!1| l450))) (let ((l458 (ite l456 |state.cy!2!0| l457))) (let ((l459 (= |state.cy!2!8| l458))) (let ((l460 (ite l459 4 5))) (let ((l461 (= l460 0))) (let ((l462 (= |state.cy!2!7| l458))) (let ((l463 (- l460 1))) (let ((l464 (ite l462 l463 l460))) (let ((l465 (= l464 0))) (let ((l466 (= |state.cy!2!6| l458))) (let ((l467 (- l464 1))) (let ((l468 (ite l466 l467 l464))) (let ((l469 (= l468 0))) (let ((l470 (= |state.cy!2!5| l458))) (let ((l471 (- l468 1))) (let ((l472 (ite l470 l471 l468))) (let ((l473 (= l472 0))) (let ((l474 (= |state.cy!2!4| l458))) (let ((l475 (- l472 1))) (let ((l476 (ite l474 l475 l472))) (let ((l477 (= l476 0))) (let ((l478 (= |state.cy!2!3| l458))) (let ((l479 (- l476 1))) (let ((l480 (ite l478 l479 l476))) (let ((l481 (= l480 0))) (let ((l482 (= |state.cy!2!2| l458))) (let ((l483 (- l480 1))) (let ((l484 (ite l482 l483 l480))) (let ((l485 (= l484 0))) (let ((l486 (= |state.cy!2!1| l458))) (let ((l487 (- l484 1))) (let ((l488 (ite l486 l487 l484))) (let ((l489 (= l488 0))) (let ((l490 (= |state.cy!2!0| l458))) (let ((l491 (- l488 1))) (let ((l492 (ite l490 l491 l488))) (let ((l493 (= l492 0))) (let ((l494 (or l461 l465 l469 l473 l477 l481 l485 l489 l493))) (let ((l495 (ite l494 l458 0))) (let ((l496 (= |next.v!2| l495))) (let ((l497 (or l31 l496))) (let ((l498 (and l327 l412 l497))) (let ((l499 (= |next.round| 3))) (let ((l500 (and l242 l498 l499 l240 l107 l111 l121))) (let ((l501 (= |state.round| 3))) (let ((l502 (= |next.round| |state.round|))) (let ((l503 (and l501 l240 l107 l111 l121 l502 l125))) (let ((l504 (or l126 l241 l500 l503))) (let ((l505 (and l0 l1 l504))) l505))))))))))))))))))))))))))))))))))))))))))))))))))))))))))))))))))))))))))))))))))))))))))))))))))))))))))))))))))))))))))))))))))))))))))))))))))))))))))))))))))))))))))))))))))))))))))))))))))))))))))))))))))))))))))))))))))))))))))))))))))))))))))))))))))))))))))))))))))))))))))))))))))))))))))))))))))))))))))))))))))))))))))))))))))))))))))))))))))))))))))))))))))))))))))))))))))))))))))))))))))))))))))))))))))))))))))))))))))))))))))))))))))))))))))))))))))))))))))))))))))))))))))))))))))))))))))
        )
        (invariant next.cx!0!0 next.cx!0!1 next.cx!0!2 next.cx!0!3 next.cx!0!4 next.cx!0!5 next.cx!0!6 next.cx!0!7 next.cx!0!8 next.cx!1!0 next.cx!1!1 next.cx!1!2 next.cx!1!3 next.cx!1!4 next.cx!1!5 next.cx!1!6 next.cx!1!7 next.cx!1!8 next.cx!2!0 next.cx!2!1 next.cx!2!2 next.cx!2!3 next.cx!2!4 next.cx!2!5 next.cx!2!6 next.cx!2!7 next.cx!2!8 next.cy!0!0 next.cy!0!1 next.cy!0!2 next.cy!0!3 next.cy!0!4 next.cy!0!5 next.cy!0!6 next.cy!0!7 next.cy!0!8 next.cy!1!0 next.cy!1!1 next.cy!1!2 next.cy!1!3 next.cy!1!4 next.cy!1!5 next.cy!1!6 next.cy!1!7 next.cy!1!8 next.cy!2!0 next.cy!2!1 next.cy!2!2 next.cy!2!3 next.cy!2!4 next.cy!2!5 next.cy!2!6 next.cy!2!7 next.cy!2!8 next.good_p!0 next.good_p!1 next.good_p!2 next.good_r!0 next.good_r!1 next.good_r!2 next.good_r!3 next.good_r!4 next.good_r!5 next.good_r!6 next.good_r!7 next.good_r!8 next.v!0 next.v!1 next.v!2 next.round next.source next.val)
    )
  )
)

;; Property
(assert
  (forall ((state.cx!0!0 Real) (state.cx!0!1 Real) (state.cx!0!2 Real) (state.cx!0!3 Real) (state.cx!0!4 Real) (state.cx!0!5 Real) (state.cx!0!6 Real) (state.cx!0!7 Real) (state.cx!0!8 Real) (state.cx!1!0 Real) (state.cx!1!1 Real) (state.cx!1!2 Real) (state.cx!1!3 Real) (state.cx!1!4 Real) (state.cx!1!5 Real) (state.cx!1!6 Real) (state.cx!1!7 Real) (state.cx!1!8 Real) (state.cx!2!0 Real) (state.cx!2!1 Real) (state.cx!2!2 Real) (state.cx!2!3 Real) (state.cx!2!4 Real) (state.cx!2!5 Real) (state.cx!2!6 Real) (state.cx!2!7 Real) (state.cx!2!8 Real) (state.cy!0!0 Real) (state.cy!0!1 Real) (state.cy!0!2 Real) (state.cy!0!3 Real) (state.cy!0!4 Real) (state.cy!0!5 Real) (state.cy!0!6 Real) (state.cy!0!7 Real) (state.cy!0!8 Real) (state.cy!1!0 Real) (state.cy!1!1 Real) (state.cy!1!2 Real) (state.cy!1!3 Real) (state.cy!1!4 Real) (state.cy!1!5 Real) (state.cy!1!6 Real) (state.cy!1!7 Real) (state.cy!1!8 Real) (state.cy!2!0 Real) (state.cy!2!1 Real) (state.cy!2!2 Real) (state.cy!2!3 Real) (state.cy!2!4 Real) (state.cy!2!5 Real) (state.cy!2!6 Real) (state.cy!2!7 Real) (state.cy!2!8 Real) (state.good_p!0 Bool) (state.good_p!1 Bool) (state.good_p!2 Bool) (state.good_r!0 Bool) (state.good_r!1 Bool) (state.good_r!2 Bool) (state.good_r!3 Bool) (state.good_r!4 Bool) (state.good_r!5 Bool) (state.good_r!6 Bool) (state.good_r!7 Bool) (state.good_r!8 Bool) (state.v!0 Real) (state.v!1 Real) (state.v!2 Real) (state.round Real) (state.source Real) (state.val Real))
    (=> (invariant state.cx!0!0 state.cx!0!1 state.cx!0!2 state.cx!0!3 state.cx!0!4 state.cx!0!5 state.cx!0!6 state.cx!0!7 state.cx!0!8 state.cx!1!0 state.cx!1!1 state.cx!1!2 state.cx!1!3 state.cx!1!4 state.cx!1!5 state.cx!1!6 state.cx!1!7 state.cx!1!8 state.cx!2!0 state.cx!2!1 state.cx!2!2 state.cx!2!3 state.cx!2!4 state.cx!2!5 state.cx!2!6 state.cx!2!7 state.cx!2!8 state.cy!0!0 state.cy!0!1 state.cy!0!2 state.cy!0!3 state.cy!0!4 state.cy!0!5 state.cy!0!6 state.cy!0!7 state.cy!0!8 state.cy!1!0 state.cy!1!1 state.cy!1!2 state.cy!1!3 state.cy!1!4 state.cy!1!5 state.cy!1!6 state.cy!1!7 state.cy!1!8 state.cy!2!0 state.cy!2!1 state.cy!2!2 state.cy!2!3 state.cy!2!4 state.cy!2!5 state.cy!2!6 state.cy!2!7 state.cy!2!8 state.good_p!0 state.good_p!1 state.good_p!2 state.good_r!0 state.good_r!1 state.good_r!2 state.good_r!3 state.good_r!4 state.good_r!5 state.good_r!6 state.good_r!7 state.good_r!8 state.v!0 state.v!1 state.v!2 state.round state.source state.val)
        (let ((l0 (= |state.source| 3))) (let ((l1 (= |state.source| 2))) (let ((l2 (ite l1 |state.good_p!1| |state.good_p!0|))) (let ((l3 (ite l0 |state.good_p!2| l2))) (let ((l4 (not l3))) (let ((l5 (< |state.round| 3))) (let ((l6 (not |state.good_p!0|))) (let ((l7 (= |state.v!0| |state.val|))) (let ((l8 (or l6 l7))) (let ((l9 (not |state.good_p!1|))) (let ((l10 (= |state.v!1| |state.val|))) (let ((l11 (or l9 l10))) (let ((l12 (not |state.good_p!2|))) (let ((l13 (= |state.v!2| |state.val|))) (let ((l14 (or l12 l13))) (let ((l15 (and l8 l11 l14))) (let ((l16 (or l4 l5 l15))) l16)))))))))))))))))
    )
  )
)

;; Check the property
(check-sat)
